\ SCIP STATISTICS
\   Problem name     : model
\   Variables        : 12 (12 binary, 0 integer, 0 implicit integer, 0 continuous)
\   Constraints      : 2
Maximize
 Obj: +20 x0 +10 x1 +25 x2 +11 x3 +5 x4 +50 x5 +15 x6 +12 x7 +6 x8 +5 x9 +4 x10 +30 x11
Subject to
 c1: +11 x0 +7 x1 +5 x2 +5 x3 +4 x4 +3 x5 +3 x6 +2 x7 +2 x8 +2 x9 +2 x10 +1 x11 <= +20
 c2: +1 x0 = +1
Bounds
 0 <= x0 <= 1
 0 <= x1 <= 1
 0 <= x2 <= 1
 0 <= x3 <= 1
 0 <= x4 <= 1
 0 <= x5 <= 1
 0 <= x6 <= 1
 0 <= x7 <= 1
 0 <= x8 <= 1
 0 <= x9 <= 1
 0 <= x10 <= 1
 0 <= x11 <= 1
Binaries
 x0 x1 x2 x3 x4 x5 x6 x7 x8 x9 x10 x11
End
